
******************************************************************************
This program contains Ipopt, a library for large-scale nonlinear optimization.
 Ipopt is released as open source code under the Eclipse Public License (EPL).
         For more information visit http://projects.coin-or.org/Ipopt
******************************************************************************

This is Ipopt version 3.12.6, running with linear solver ma57.

Number of nonzeros in equality constraint Jacobian...:        0
Number of nonzeros in inequality constraint Jacobian.:        0
Number of nonzeros in Lagrangian Hessian.............:    39994

Total number of variables............................:    10000
                     variables with only lower bounds:        0
                variables with lower and upper bounds:        0
                     variables with only upper bounds:        0
Total number of equality constraints.................:        0
Total number of inequality constraints...............:        0
        inequality constraints with only lower bounds:        0
   inequality constraints with lower and upper bounds:        0
        inequality constraints with only upper bounds:        0

iter    objective    inf_pr   inf_du lg(mu)  ||d||  lg(rg) alpha_du alpha_pr  ls
   0  0.0000000e+00 0.00e+00 5.00e-01  -1.0 0.00e+00    -  0.00e+00 0.00e+00   0
   1 -1.8336138e+03 0.00e+00 1.13e+00  -1.7 6.95e+01    -  1.00e+00 7.81e-03f  8
   2 -1.8643551e+03 0.00e+00 1.05e-02  -1.7 4.07e-02    -  1.00e+00 1.00e+00f  1
   3 -1.8645379e+03 0.00e+00 7.21e-05  -3.8 3.46e-03    -  1.00e+00 1.00e+00f  1
   4 -1.8645379e+03 0.00e+00 3.48e-09  -5.7 2.41e-05    -  1.00e+00 1.00e+00f  1

Number of Iterations....: 4

                                   (scaled)                 (unscaled)
Objective...............:  -1.8645379265659735e+03   -1.8645379265659735e+03
Dual infeasibility......:   3.4776447277451439e-09    3.4776447277451439e-09
Constraint violation....:   0.0000000000000000e+00    0.0000000000000000e+00
Complementarity.........:   0.0000000000000000e+00    0.0000000000000000e+00
Overall NLP error.......:   3.4776447277451439e-09    3.4776447277451439e-09


Number of objective function evaluations             = 16
Number of objective gradient evaluations             = 5
Number of equality constraint evaluations            = 0
Number of inequality constraint evaluations          = 0
Number of equality constraint Jacobian evaluations   = 0
Number of inequality constraint Jacobian evaluations = 0
Number of Lagrangian Hessian evaluations             = 4
Total CPU secs in IPOPT (w/o function evaluations)   =      0.090
Total CPU secs in NLP function evaluations           =      0.033

EXIT: Optimal Solution Found.

 ** SUBROUTINE CUTEST_csetup: Warning. The problem has no general constraints. 
 ** Other tools may be preferable ** 

************************ CUTEst statistics ************************


 Package used            :  IPOPT
 Problem                 :  BOX       
 # variables             =           10000
 # constraints           =               0
 # objective functions   =        0.2200000E+02
 # objective gradients   =        0.6000000E+01
 # objective Hessians    =        0.5000000E+01
 # Hessian-vector prdct  =        0.0000000E+00
 # constraints functions =        0.0000000E+00
 # constraints gradients =        0.0000000E+00
 # constraints Hessians  =        0.0000000E+00
 Exit code               =               0
 Final f                 =  -0.1864538E+04
 Set up time             =            0.31 seconds
 Solve time              =            0.13 seconds


******************************************************************

System Time =       0.1260000020 s.
